objective value:                                   -3
t_n_5                                               1 	(obj:-1)
t_n_262                                             1 	(obj:-1)
t_n_1118                                            1 	(obj:-1)
